c 
c G(k,n,p) graph
c graph gen seed     : 1586
c number of vertices : 20
c max number of edges: 400
c number of classes  : 2
c edge density       : 0.800000
c edge probability   : 1.600000
c data structure     : dense
c
c           Graph Stats
c number of vertices  : 20
c nonisolated vertices: 20
c number of edges     : 91
c edge density        : 0.478947
c max degree          : 13
c avg degree          : 9.10
c min degree          : 7
p col 20 91
e 1 5
e 1 8
e 1 9
e 1 10
e 1 14
e 1 20
e 2 3
e 2 4
e 2 6
e 2 7
e 2 11
e 2 12
e 2 13
e 2 15
e 2 16
e 2 17
e 2 18
e 2 19
e 3 4
e 3 6
e 3 7
e 3 11
e 3 12
e 3 13
e 3 15
e 3 16
e 3 17
e 3 18
e 3 19
e 4 6
e 4 7
e 4 11
e 4 12
e 4 13
e 4 15
e 4 16
e 4 17
e 4 18
e 4 19
e 5 8
e 5 9
e 5 10
e 5 14
e 5 20
e 6 7
e 6 11
e 6 12
e 6 13
e 6 15
e 6 16
e 6 17
e 6 18
e 6 19
e 7 11
e 7 12
e 7 13
e 7 15
e 7 16
e 7 17
e 7 18
e 7 19
e 8 9
e 8 10
e 8 14
e 8 20
e 9 10
e 9 14
e 9 20
e 10 14
e 10 20
e 11 12
e 11 13
e 11 15
e 11 16
e 11 17
e 11 18
e 11 19
e 12 13
e 12 15
e 12 16
e 12 17
e 12 18
e 12 19
e 13 15
e 13 16
e 13 17
e 13 18
e 13 19
e 14 20
e 15 16
e 15 17
e 15 18
e 15 19
e 16 17
e 16 18
e 16 19
e 17 18
e 17 19
e 18 19
